
Gurobi 9.5.0 (linux64) logging started Sat Nov  4 17:02:58 2023

Set parameter LogFile to value "/lustre1/scratch/348/vsc34888/JointResearch/05.Models/06.Benchmarking/D.Representative_days_based_on_RES_and_Demand/RTS24_ByStages_nc50/openStarNet_RTS24_ByStages_nc50.log"
Set parameter Method to value 2
Set parameter MIPFocus to value 1
Set parameter Presolve to value 2
Set parameter RINS to value 100
Set parameter MIPGap to value 0.01
Set parameter Threads to value 36
Set parameter TimeLimit to value 604800
Set parameter IterationLimit to value 760000000
Gurobi Optimizer version 9.5.0 build v9.5.0rc5 (linux64)
Thread count: 36 physical cores, 36 logical processors, using up to 36 threads
Optimize a model with 23339 rows, 13167 columns and 61454 nonzeros
Model fingerprint: 0xef1037bc
Variable types: 13128 continuous, 39 integer (39 binary)
Coefficient statistics:
  Matrix range     [6e-03, 2e+03]
  Objective range  [1e+00, 1e+00]
  Bounds range     [4e-04, 3e+00]
  RHS range        [4e-04, 3e+00]
Presolve removed 11939 rows and 5819 columns
Presolve time: 0.09s
Presolved: 11400 rows, 7348 columns, 39659 nonzeros
Variable types: 7309 continuous, 39 integer (39 binary)
Found heuristic solution: objective 61.2147269
Root relaxation presolved: 11400 rows, 7348 columns, 39659 nonzeros

Root barrier log...

Ordering time: 0.00s

Barrier statistics:
 Dense cols : 39
 AA' NZ     : 8.435e+04
 Factor NZ  : 2.830e+05 (roughly 10 MB of memory)
 Factor Ops : 8.910e+06 (less than 1 second per iteration)
 Threads    : 36

                  Objective                Residual
Iter       Primal          Dual         Primal    Dual     Compl     Time
   0   5.80217411e+05 -5.01681618e+07  4.24e+00 2.68e+02  6.04e+03     0s
   1   5.53787306e+04 -1.30144338e+07  3.48e-01 1.10e-09  7.42e+02     0s
   2   1.34180822e+04 -1.59454499e+06  5.39e-03 1.21e-09  7.00e+01     0s
   3   7.41376586e+03 -1.54786868e+05  1.27e-12 1.29e-10  6.99e+00     0s
   4   1.47480412e+03 -1.43555004e+04  9.04e-13 7.15e-12  6.82e-01     0s
   5   3.85435408e+02 -5.24609059e+03  3.96e-13 2.47e-12  2.43e-01     0s
   6   2.58923445e+02 -1.38772499e+03  2.36e-13 9.09e-13  7.10e-02     0s
   7   1.70456222e+02 -4.79495351e+02  2.47e-13 9.09e-13  2.80e-02     0s
   8   1.15685108e+02 -1.07939264e+02  1.88e-13 9.09e-13  9.64e-03     0s
   9   8.59275914e+01 -2.00001598e+01  1.57e-13 1.82e-12  4.57e-03     0s
  10   5.64976204e+01  2.37808287e+01  1.40e-13 9.09e-13  1.41e-03     0s
  11   4.98152702e+01  3.61499395e+01  7.66e-13 9.09e-13  5.89e-04     0s
  12   4.80840033e+01  4.27468103e+01  1.02e-12 9.09e-13  2.30e-04     0s
  13   4.76359886e+01  4.39893039e+01  1.13e-12 9.09e-13  1.57e-04     0s
  14   4.69305277e+01  4.45942878e+01  1.66e-11 9.09e-13  1.01e-04     0s
  15   4.65600158e+01  4.52507140e+01  9.96e-12 9.09e-13  5.64e-05     0s
  16   4.62468097e+01  4.58849515e+01  6.61e-12 9.09e-13  1.56e-05     0s
  17   4.61904478e+01  4.60111526e+01  2.45e-11 9.09e-13  7.73e-06     0s
  18   4.60542485e+01  4.60300432e+01  4.40e-11 9.09e-13  1.04e-06     0s
  19   4.60527865e+01  4.60459519e+01  2.97e-11 1.82e-12  2.95e-07     0s
  20   4.60483355e+01  4.60481720e+01  1.92e-10 9.09e-13  7.05e-09     0s
  21   4.60482630e+01  4.60482626e+01  8.32e-10 9.09e-13  1.69e-11     1s

Barrier solved model in 21 iterations and 0.51 seconds (0.35 work units)
Optimal objective 4.60482630e+01


Root relaxation: objective 4.604826e+01, 770 iterations, 0.37 seconds (0.18 work units)

    Nodes    |    Current Node    |     Objective Bounds      |     Work
 Expl Unexpl |  Obj  Depth IntInf | Incumbent    BestBd   Gap | It/Node Time

     0     0   46.04826    0    6   61.21473   46.04826  24.8%     -    0s
H    0     0                      56.8286010   46.04826  19.0%     -    0s
     0     0   46.86550    0    8   56.82860   46.86550  17.5%     -    0s
H    0     0                      56.8081972   46.86550  17.5%     -    0s
     0     0   47.02426    0    8   56.80820   47.02426  17.2%     -    0s
     0     0   47.96158    0    8   56.80820   47.96158  15.6%     -    1s
     0     0   47.96158    0    8   56.80820   47.96158  15.6%     -    1s
     0     0   48.17736    0    8   56.80820   48.17736  15.2%     -    1s
     0     0   48.17736    0    8   56.80820   48.17736  15.2%     -    1s
     0     0   49.28954    0    8   56.80820   49.28954  13.2%     -    1s
H    0     0                      56.6510882   49.28954  13.0%     -    1s
H    0     0                      55.7034081   49.28954  11.5%     -    1s
     0     0   49.30177    0    9   55.70341   49.30177  11.5%     -    1s
     0     0   49.42921    0    9   55.70341   49.42921  11.3%     -    1s
     0     0   49.42921    0    9   55.70341   49.42921  11.3%     -    1s
     0     0   49.42921    0    9   55.70341   49.42921  11.3%     -    1s
     0     0   49.60034    0    9   55.70341   49.60034  11.0%     -    1s
     0     0   49.91409    0    9   55.70341   49.91409  10.4%     -    2s
     0     0   49.91409    0    9   55.70341   49.91409  10.4%     -    2s
     0     0   49.91409    0    9   55.70341   49.91409  10.4%     -    2s
     0     0   49.95834    0    9   55.70341   49.95834  10.3%     -    2s
H    0     0                      54.4432118   49.95834  8.24%     -    4s
     0     2   49.95834    0    9   54.44321   49.95834  8.24%     -    4s
   123    24   53.53057    9    2   54.44321   52.85824  2.91%   165    8s
   148    23   54.00146   10    2   54.44321   52.91040  2.82%   151   10s

Cutting planes:
  Gomory: 4
  Implied bound: 15
  MIR: 295

Explored 207 nodes (28232 simplex iterations) in 10.82 seconds (13.94 work units)
Thread count was 36 (of 36 available processors)

Solution count 6: 54.4432 55.7034 56.6511 ... 61.2147

Optimal solution found (tolerance 1.00e-02)
Best objective 5.444321183085e+01, best bound 5.424165413252e+01, gap 0.3702%

Gurobi 9.5.0 (linux64) logging started Sat Nov  4 17:03:11 2023

Set parameter LogFile to value "/lustre1/scratch/348/vsc34888/JointResearch/05.Models/06.Benchmarking/D.Representative_days_based_on_RES_and_Demand/RTS24_ByStages_nc50/openStarNet_RTS24_ByStages_nc50.log"
Set parameter Method to value 2
Set parameter MIPFocus to value 1
Set parameter Presolve to value 2
Set parameter RINS to value 100
Set parameter MIPGap to value 0.01
Set parameter Threads to value 36
Set parameter TimeLimit to value 604800
Set parameter IterationLimit to value 760000000
No parameters matching 'relax_integrality' found
Gurobi Optimizer version 9.5.0 build v9.5.0rc5 (linux64)
Thread count: 36 physical cores, 36 logical processors, using up to 36 threads
Optimize a model with 23339 rows, 13128 columns and 53615 nonzeros
Model fingerprint: 0xcae987c2
Coefficient statistics:
  Matrix range     [6e-03, 2e+03]
  Objective range  [1e+00, 1e+00]
  Bounds range     [4e-04, 3e+00]
  RHS range        [4e-04, 1e+01]
Presolve removed 18895 rows and 6531 columns
Presolve time: 0.02s
Presolved: 4444 rows, 6697 columns, 16035 nonzeros

Ordering time: 0.00s

Barrier statistics:
 AA' NZ     : 1.057e+04
 Factor NZ  : 4.616e+04 (roughly 4 MB of memory)
 Factor Ops : 6.762e+05 (less than 1 second per iteration)
 Threads    : 1

                  Objective                Residual
Iter       Primal          Dual         Primal    Dual     Compl     Time
   0   6.86288960e+05 -1.27956945e+08  5.05e+00 6.52e+02  2.07e+04     0s
   1   8.00982078e+04 -1.76730328e+07  4.61e-01 1.60e-11  2.05e+03     0s
   2   4.11788358e+04 -2.36043963e+06  1.23e-01 1.53e-11  2.55e+02     0s
   3   2.23970928e+04 -3.39640686e+05  3.47e-03 1.18e-11  3.20e+01     0s
   4   8.46816769e+03 -5.14163119e+04  4.90e-05 3.25e-11  5.25e+00     0s
   5   2.62530969e+03 -9.88084950e+03  1.26e-05 4.35e-12  1.10e+00     0s
   6   4.23833199e+02 -2.73257331e+03  1.08e-06 3.64e-12  2.77e-01     0s
   7   1.54505869e+02 -3.76894657e+02  3.26e-08 3.64e-12  4.66e-02     0s
   8   9.40740135e+01 -6.25558603e+01  4.77e-09 1.82e-12  1.37e-02     0s
   9   7.51631660e+01  8.71896581e+00  2.20e-09 3.64e-12  5.83e-03     0s
  10   6.26809977e+01  3.68958412e+01  7.56e-10 3.64e-12  2.26e-03     0s
  11   5.81423024e+01  4.62147718e+01  3.28e-10 3.64e-12  1.05e-03     0s
  12   5.56678370e+01  5.32080841e+01  1.02e-10 3.64e-12  2.16e-04     0s
  13   5.45327513e+01  5.42521677e+01  1.07e-11 3.64e-12  2.46e-05     0s
  14   5.44459992e+01  5.44246395e+01  1.18e-11 3.64e-12  1.87e-06     0s
  15   5.44432982e+01  5.44430086e+01  4.09e-11 3.64e-12  2.54e-08     0s
  16   5.44432118e+01  5.44432118e+01  5.82e-12 3.64e-12  8.90e-13     0s
  17   5.44432118e+01  5.44432118e+01  8.96e-12 3.64e-12  1.16e-17     0s

Barrier solved model in 17 iterations and 0.08 seconds (0.07 work units)
Optimal objective 5.44432118e+01

Crossover log...

     593 DPushes remaining with DInf 0.0000000e+00                 0s
       0 DPushes remaining with DInf 0.0000000e+00                 0s

     226 PPushes remaining with PInf 0.0000000e+00                 0s
       0 PPushes remaining with PInf 0.0000000e+00                 0s

  Push phase complete: Pinf 0.0000000e+00, Dinf 9.8477894e-13      0s

Iteration    Objective       Primal Inf.    Dual Inf.      Time
     247    5.4443212e+01   0.000000e+00   0.000000e+00      0s

Use crossover to convert LP symmetric solution to basic solution...
Crossover log...

       0 DPushes remaining with DInf 0.0000000e+00                 0s

     154 PPushes remaining with PInf 0.0000000e+00                 0s
       0 PPushes remaining with PInf 0.0000000e+00                 0s

  Push phase complete: Pinf 0.0000000e+00, Dinf 1.1788500e-12      0s

Iteration    Objective       Primal Inf.    Dual Inf.      Time
     422    5.4443212e+01   0.000000e+00   0.000000e+00      0s

Solved in 422 iterations and 0.12 seconds (0.09 work units)
Optimal objective  5.444321183e+01

Gurobi 9.0.2 (win64) logging started Mon Nov  6 09:28:40 2023

Changed value of parameter LogFile to C:\Users\u0138303\OneDrive - KU Leuven\JointResearch\05. Models\06.Benchmarking\D.Representative_days_based_on_RES_and_Demand\RTS24_ByStages_nc50/openStarNet_RTS24_ByStages_nc50.log
   Prev:   Default: 
Changed value of parameter Method to 2
   Prev: -1  Min: -1  Max: 5  Default: -1
Changed value of parameter MIPFocus to 1
   Prev: 0  Min: 0  Max: 3  Default: 0
Changed value of parameter Presolve to 2
   Prev: -1  Min: -1  Max: 2  Default: -1
Changed value of parameter RINS to 100
   Prev: -1  Min: -1  Max: 2000000000  Default: -1
Parameter Crossover unchanged
   Value: -1  Min: -1  Max: 5  Default: -1
Changed value of parameter MIPGap to 0.01
   Prev: 0.0001  Min: 0.0  Max: inf  Default: 0.0001
Changed value of parameter Threads to 6
   Prev: 0  Min: 0  Max: 1024  Default: 0
Changed value of parameter TimeLimit to 604800.0
   Prev: inf  Min: 0.0  Max: inf  Default: inf
Changed value of parameter IterationLimit to 760000000.0
   Prev: inf  Min: 0.0  Max: inf  Default: inf
Gurobi Optimizer version 9.0.2 build v9.0.2rc0 (win64)
Optimize a model with 23340 rows, 13167 columns and 61455 nonzeros
Model fingerprint: 0xa778c338
Variable types: 13128 continuous, 39 integer (39 binary)
Coefficient statistics:
  Matrix range     [6e-03, 3e+03]
  Objective range  [1e+00, 1e+00]
  Bounds range     [4e-04, 3e+00]
  RHS range        [4e-04, 3e+00]
Presolve removed 11940 rows and 5819 columns
Presolve time: 0.09s
Presolved: 11400 rows, 7348 columns, 39659 nonzeros
Variable types: 7309 continuous, 39 integer (39 binary)
Presolved: 11400 rows, 7348 columns, 39659 nonzeros

Root barrier log...

Ordering time: 0.01s

Barrier statistics:
 Dense cols : 39
 AA' NZ     : 8.435e+04
 Factor NZ  : 2.719e+05 (roughly 10 MBytes of memory)
 Factor Ops : 8.134e+06 (less than 1 second per iteration)
 Threads    : 5

                  Objective                Residual
Iter       Primal          Dual         Primal    Dual     Compl     Time
   0   6.12728685e+05 -5.03221875e+07  4.37e+00 2.68e+02  6.17e+03     0s
   1   7.14369463e+04 -1.34075732e+07  3.76e-01 3.35e-09  7.75e+02     0s
   2   2.23706652e+04 -1.35495717e+06  5.09e-03 1.60e-09  6.00e+01     0s
   3   9.71535355e+03 -1.32689425e+05  1.16e-04 1.27e-10  6.14e+00     0s
   4   2.12275956e+03 -1.29001511e+04  1.52e-05 8.65e-12  6.48e-01     0s
   5   3.54903134e+02 -3.80797983e+03  1.05e-06 2.41e-12  1.79e-01     0s
   6   2.26081617e+02 -1.01154020e+03  3.20e-07 9.12e-13  5.34e-02     0s
   7   1.30843305e+02 -4.25918210e+02  4.98e-08 1.07e-12  2.40e-02     0s
   8   1.03348113e+02 -1.20362574e+02  2.69e-08 1.60e-12  9.64e-03     0s
   9   6.97726030e+01 -1.22738307e+00  8.77e-09 1.02e-12  3.06e-03     0s
  10   5.31021701e+01  3.61695620e+01  2.33e-09 1.32e-12  7.30e-04     0s
  11   4.92680873e+01  3.99363214e+01  1.02e-09 1.40e-12  4.02e-04     0s
  12   4.82160765e+01  4.21774087e+01  6.80e-10 7.34e-13  2.60e-04     0s
  13   4.76593237e+01  4.33861519e+01  5.06e-10 1.19e-12  1.84e-04     0s
  14   4.68313782e+01  4.51881913e+01  2.20e-10 1.32e-12  7.08e-05     0s
  15   4.62838526e+01  4.58634863e+01  6.59e-11 1.34e-12  1.81e-05     0s
  16   4.61457791e+01  4.59996875e+01  8.20e-11 9.49e-13  6.30e-06     0s
  17   4.60801520e+01  4.60183418e+01  3.43e-11 9.48e-13  2.66e-06     0s
  18   4.60535440e+01  4.60244691e+01  6.35e-11 8.87e-13  1.25e-06     0s
  19   4.60536182e+01  4.60309516e+01  6.16e-11 1.03e-12  9.77e-07     0s
  20   4.60501975e+01  4.60412766e+01  3.02e-11 1.83e-12  3.85e-07     0s
  21   4.60485239e+01  4.60481279e+01  1.47e-11 1.59e-12  1.71e-08     0s
  22   4.60482629e+01  4.60482625e+01  3.36e-11 1.56e-12  1.72e-11     0s

Barrier solved model in 22 iterations and 0.46 seconds
Optimal objective 4.60482629e+01


Root relaxation: objective 4.604826e+01, 628 iterations, 0.40 seconds

    Nodes    |    Current Node    |     Objective Bounds      |     Work
 Expl Unexpl |  Obj  Depth IntInf | Incumbent    BestBd   Gap | It/Node Time

     0     0   46.04826    0    6          -   46.04826      -     -    0s
H    0     0                      61.2147269   46.04826  24.8%     -    0s
H    0     0                      56.8286010   46.04826  19.0%     -    0s
     0     0   46.86550    0    8   56.82860   46.86550  17.5%     -    1s
H    0     0                      56.8081972   46.86550  17.5%     -    1s
     0     0   47.02426    0    7   56.80820   47.02426  17.2%     -    1s
     0     0   48.17736    0    9   56.80820   48.17736  15.2%     -    1s
H    0     0                      56.6510882   48.75010  13.9%     -    2s
     0     0   48.75010    0    9   56.65109   48.75010  13.9%     -    2s
     0     0   48.75010    0    9   56.65109   48.75010  13.9%     -    2s
     0     0   49.30177    0    8   56.65109   49.30177  13.0%     -    2s
     0     0   49.46951    0    8   56.65109   49.46951  12.7%     -    2s
     0     0   49.46951    0    8   56.65109   49.46951  12.7%     -    2s
     0     0   49.60034    0    9   56.65109   49.60034  12.4%     -    3s
     0     0   49.60034    0    9   56.65109   49.60034  12.4%     -    3s
     0     0   49.91409    0    9   56.65109   49.91409  11.9%     -    3s
H    0     0                      54.4432118   49.91409  8.32%     -    9s
     0     2   49.91409    0    9   54.44321   49.91409  8.32%     -    9s
     3     8   52.93703    2   11   54.44321   49.91409  8.32%   564   10s
   217     8   54.20700    8    2   54.44321   52.10191  4.30%   109   15s

Cutting planes:
  Gomory: 3
  Implied bound: 1
  MIR: 398

Explored 241 nodes (26879 simplex iterations) in 15.15 seconds
Thread count was 6 (of 8 available processors)

Solution count 5: 54.4432 56.6511 56.8082 ... 61.2147

Optimal solution found (tolerance 1.00e-02)
Best objective 5.444321183085e+01, best bound 5.444321183085e+01, gap 0.0000%

Gurobi 9.0.2 (win64) logging started Mon Nov  6 09:28:58 2023

Changed value of parameter LogFile to C:\Users\u0138303\OneDrive - KU Leuven\JointResearch\05. Models\06.Benchmarking\D.Representative_days_based_on_RES_and_Demand\RTS24_ByStages_nc50/openStarNet_RTS24_ByStages_nc50.log
   Prev:   Default: 
Changed value of parameter Method to 2
   Prev: -1  Min: -1  Max: 5  Default: -1
Changed value of parameter MIPFocus to 1
   Prev: 0  Min: 0  Max: 3  Default: 0
Changed value of parameter Presolve to 2
   Prev: -1  Min: -1  Max: 2  Default: -1
Changed value of parameter RINS to 100
   Prev: -1  Min: -1  Max: 2000000000  Default: -1
Parameter Crossover unchanged
   Value: -1  Min: -1  Max: 5  Default: -1
Changed value of parameter MIPGap to 0.01
   Prev: 0.0001  Min: 0.0  Max: inf  Default: 0.0001
Changed value of parameter Threads to 6
   Prev: 0  Min: 0  Max: 1024  Default: 0
Changed value of parameter TimeLimit to 604800.0
   Prev: inf  Min: 0.0  Max: inf  Default: inf
Changed value of parameter IterationLimit to 760000000.0
   Prev: inf  Min: 0.0  Max: inf  Default: inf
No parameters matching 'relax_integrality' found
Gurobi Optimizer version 9.0.2 build v9.0.2rc0 (win64)
Optimize a model with 23340 rows, 13128 columns and 53616 nonzeros
Model fingerprint: 0x2aafebf6
Coefficient statistics:
  Matrix range     [6e-03, 3e+03]
  Objective range  [1e+00, 1e+00]
  Bounds range     [4e-04, 3e+00]
  RHS range        [4e-04, 1e+01]
Presolve removed 18896 rows and 6531 columns
Presolve time: 0.02s
Presolved: 4444 rows, 6697 columns, 16035 nonzeros

Ordering time: 0.00s

Barrier statistics:
 AA' NZ     : 1.264e+04
 Factor NZ  : 5.912e+04 (roughly 5 MBytes of memory)
 Factor Ops : 8.918e+05 (less than 1 second per iteration)
 Threads    : 1

                  Objective                Residual
Iter       Primal          Dual         Primal    Dual     Compl     Time
   0   4.09236520e+05 -2.63994533e+07  4.51e+00 3.66e+02  3.58e+03     0s
   1   4.96488485e+04 -4.46952086e+06  3.10e-01 2.73e-12  3.80e+02     0s
   2   1.71276837e+04 -4.38857939e+05  1.78e-15 2.73e-12  3.13e+01     0s
   3   5.70385938e+03 -3.65605859e+04  6.66e-15 1.82e-12  2.90e+00     0s
   4   5.57846690e+02 -3.83217587e+03  3.09e-14 6.96e-13  3.01e-01     0s
   5   1.99541316e+02 -8.88502618e+02  1.23e-13 6.93e-13  7.46e-02     0s
   6   1.37193302e+02 -2.30022980e+02  1.14e-13 8.88e-13  2.52e-02     0s
   7   9.77120839e+01 -6.13321283e+01  8.73e-14 5.76e-13  1.09e-02     0s
   8   7.07877933e+01  1.42217859e+01  3.16e-13 9.79e-13  3.88e-03     0s
   9   6.20018416e+01  3.74394911e+01  3.32e-13 8.22e-13  1.68e-03     0s
  10   5.71393315e+01  5.00659846e+01  6.97e-13 7.33e-13  4.85e-04     0s
  11   5.48496500e+01  5.39242879e+01  1.08e-12 1.05e-12  6.34e-05     0s
  12   5.45458120e+01  5.43421399e+01  2.43e-12 7.36e-13  1.40e-05     0s
  13   5.44674920e+01  5.44330550e+01  1.31e-11 1.17e-12  2.36e-06     0s
  14   5.44438136e+01  5.44416783e+01  5.68e-11 7.44e-13  1.46e-07     0s
  15   5.44432142e+01  5.44432069e+01  4.67e-11 1.46e-12  5.02e-10     0s
  16   5.44432118e+01  5.44432118e+01  1.54e-11 9.19e-13  5.79e-16     0s

Barrier solved model in 16 iterations and 0.07 seconds
Optimal objective 5.44432118e+01

Crossover log...

       0 DPushes remaining with DInf 0.0000000e+00                 0s

     248 PPushes remaining with PInf 0.0000000e+00                 0s
       0 PPushes remaining with PInf 0.0000000e+00                 0s

  Push phase complete: Pinf 0.0000000e+00, Dinf 1.1051959e-12      0s

Iteration    Objective       Primal Inf.    Dual Inf.      Time
     287    5.4443212e+01   0.000000e+00   0.000000e+00      0s

Solved in 287 iterations and 0.10 seconds
Optimal objective  5.444321183e+01

Gurobi 9.5.0 (linux64) logging started Wed Nov  8 12:45:31 2023

Set parameter LogFile to value "/lustre1/scratch/348/vsc34888/JointResearch/05.Models/06.Benchmarking/D.Representative_days_based_on_RES_and_Demand/RTS24_ByStages_nc50/openStarNet_RTS24_ByStages_nc50.log"
Set parameter Method to value 2
Set parameter MIPFocus to value 1
Set parameter Presolve to value 2
Set parameter RINS to value 100
Set parameter MIPGap to value 0.01
Set parameter Threads to value 36
Set parameter TimeLimit to value 604800
Set parameter IterationLimit to value 760000000
Gurobi Optimizer version 9.5.0 build v9.5.0rc5 (linux64)
Thread count: 36 physical cores, 36 logical processors, using up to 36 threads
Optimize a model with 23339 rows, 13167 columns and 62604 nonzeros
Model fingerprint: 0x2812940d
Variable types: 13128 continuous, 39 integer (39 binary)
Coefficient statistics:
  Matrix range     [6e-03, 2e+03]
  Objective range  [1e+00, 1e+00]
  Bounds range     [4e-04, 3e+00]
  RHS range        [4e-04, 3e+00]
Presolve removed 11939 rows and 5819 columns
Presolve time: 0.10s
Presolved: 11400 rows, 7348 columns, 39659 nonzeros
Variable types: 7309 continuous, 39 integer (39 binary)
Found heuristic solution: objective 156.9630809
Root relaxation presolved: 11400 rows, 7348 columns, 39659 nonzeros

Root barrier log...

Ordering time: 0.00s

Barrier statistics:
 Dense cols : 39
 AA' NZ     : 8.435e+04
 Factor NZ  : 2.732e+05 (roughly 10 MB of memory)
 Factor Ops : 8.169e+06 (less than 1 second per iteration)
 Threads    : 36

                  Objective                Residual
Iter       Primal          Dual         Primal    Dual     Compl     Time
   0   5.99144584e+05 -5.02141505e+07  4.30e+00 2.67e+02  6.10e+03     0s
   1   6.58787105e+04 -1.32077311e+07  3.72e-01 3.10e-09  7.63e+02     0s
   2   1.93507874e+04 -1.69201254e+06  4.97e-03 2.30e-10  7.45e+01     0s
   3   8.32335244e+03 -1.30828123e+05  1.33e-12 1.92e-11  6.00e+00     0s
   4   1.79805567e+03 -1.55933828e+04  9.02e-13 1.88e-12  7.50e-01     0s
   5   4.85203379e+02 -4.46074997e+03  5.21e-13 9.09e-13  2.13e-01     0s
   6   3.30124458e+02 -1.55210266e+03  3.08e-13 9.09e-13  8.11e-02     0s
   7   2.52524705e+02 -6.30530557e+02  2.87e-13 9.09e-13  3.81e-02     0s
   8   1.63301556e+02 -1.37778735e+02  3.73e-13 9.09e-13  1.30e-02     0s
   9   1.27356152e+02 -2.34532014e+00  2.58e-13 9.09e-13  5.59e-03     0s
  10   1.10833271e+02  5.86648406e+01  3.43e-13 9.09e-13  2.25e-03     0s
  11   1.02458720e+02  8.77226555e+01  1.55e-12 1.82e-12  6.35e-04     0s
  12   1.00792977e+02  9.15115700e+01  1.35e-12 9.09e-13  4.00e-04     0s
  13   9.94348626e+01  9.45355674e+01  1.97e-12 1.82e-12  2.11e-04     0s
  14   9.88497902e+01  9.56593322e+01  5.22e-12 9.09e-13  1.38e-04     0s
  15   9.82699399e+01  9.62113763e+01  7.40e-12 9.09e-13  8.87e-05     0s
  16   9.78215469e+01  9.73507910e+01  4.75e-12 9.09e-13  2.03e-05     0s
  17   9.77101132e+01  9.75194629e+01  9.98e-12 9.09e-13  8.22e-06     0s
  18   9.76647274e+01  9.75760603e+01  4.48e-11 9.09e-13  3.82e-06     0s
  19   9.76193241e+01  9.75845215e+01  8.10e-11 9.09e-13  1.50e-06     0s
  20   9.76117290e+01  9.76059975e+01  1.92e-10 9.09e-13  2.47e-07     0s
  21   9.76080948e+01  9.76074179e+01  1.33e-10 1.82e-12  2.92e-08     0s
  22   9.76077410e+01  9.76076862e+01  1.28e-11 1.82e-12  2.36e-09     0s
  23   9.76077188e+01  9.76077150e+01  3.56e-10 9.09e-13  1.63e-10     0s
  24   9.76077175e+01  9.76077174e+01  8.73e-09 1.36e-12  2.34e-12     0s

Barrier solved model in 24 iterations and 0.49 seconds (0.37 work units)
Optimal objective 9.76077175e+01


Root relaxation: objective 9.760772e+01, 869 iterations, 0.35 seconds (0.20 work units)

    Nodes    |    Current Node    |     Objective Bounds      |     Work
 Expl Unexpl |  Obj  Depth IntInf | Incumbent    BestBd   Gap | It/Node Time

     0     0   97.60772    0   11  156.96308   97.60772  37.8%     -    0s
H    0     0                     128.9204791   97.60772  24.3%     -    0s
H    0     0                     128.8504341   99.36513  22.9%     -    0s
     0     0   99.36513    0   10  128.85043   99.36513  22.9%     -    0s
H    0     0                     111.8300608   99.36513  11.1%     -    1s
     0     0   99.46794    0   10  111.83006   99.46794  11.1%     -    1s
     0     0   99.47043    0   10  111.83006   99.47043  11.1%     -    1s
     0     0  100.28348    0   12  111.83006  100.28348  10.3%     -    1s
     0     0  100.28919    0   11  111.83006  100.28919  10.3%     -    1s
     0     0  100.29441    0   11  111.83006  100.29441  10.3%     -    1s
     0     0  100.29754    0   11  111.83006  100.29754  10.3%     -    1s
     0     0  100.44012    0   10  111.83006  100.44012  10.2%     -    1s
     0     0  100.47456    0   11  111.83006  100.47456  10.2%     -    1s
     0     0  100.48133    0   11  111.83006  100.48133  10.1%     -    1s
     0     0  100.49449    0   12  111.83006  100.49449  10.1%     -    1s
     0     0  100.49505    0   12  111.83006  100.49505  10.1%     -    1s
     0     0  100.49513    0   11  111.83006  100.49513  10.1%     -    2s
     0     0  100.49722    0   12  111.83006  100.49722  10.1%     -    2s
     0     0  100.53511    0   11  111.83006  100.53511  10.1%     -    2s
     0     0  100.53642    0   11  111.83006  100.53642  10.1%     -    2s
     0     0  100.53649    0   11  111.83006  100.53649  10.1%     -    2s
     0     0  100.53695    0   11  111.83006  100.53695  10.1%     -    2s
H    0     0                     111.7728562  100.53695  10.1%     -    7s
     0     2  100.53695    0   11  111.77286  100.53695  10.1%     -    7s
H  111    95                     108.7787908  105.53516  2.98%   175   16s
   147    90     cutoff    9       108.77879  105.53516  2.98%   167   23s
   305    70  108.14982   13    6  108.77879  105.59646  2.93%   112   26s

Cutting planes:
  Gomory: 4
  Implied bound: 72
  MIR: 481
  Relax-and-lift: 2

Explored 554 nodes (52438 simplex iterations) in 27.12 seconds (28.24 work units)
Thread count was 36 (of 36 available processors)

Solution count 6: 108.779 111.773 111.83 ... 156.963

Optimal solution found (tolerance 1.00e-02)
Best objective 1.087787907824e+02, best bound 1.087787907824e+02, gap 0.0000%

Gurobi 9.5.0 (linux64) logging started Wed Nov  8 12:46:01 2023

Set parameter LogFile to value "/lustre1/scratch/348/vsc34888/JointResearch/05.Models/06.Benchmarking/D.Representative_days_based_on_RES_and_Demand/RTS24_ByStages_nc50/openStarNet_RTS24_ByStages_nc50.log"
Set parameter Method to value 2
Set parameter MIPFocus to value 1
Set parameter Presolve to value 2
Set parameter RINS to value 100
Set parameter MIPGap to value 0.01
Set parameter Threads to value 36
Set parameter TimeLimit to value 604800
Set parameter IterationLimit to value 760000000
No parameters matching 'relax_integrality' found
Gurobi Optimizer version 9.5.0 build v9.5.0rc5 (linux64)
Thread count: 36 physical cores, 36 logical processors, using up to 36 threads
Optimize a model with 23339 rows, 13128 columns and 54765 nonzeros
Model fingerprint: 0x2b42e643
Coefficient statistics:
  Matrix range     [6e-03, 2e+03]
  Objective range  [1e+00, 1e+00]
  Bounds range     [4e-04, 3e+00]
  RHS range        [4e-04, 3e+01]
Presolve removed 18744 rows and 6379 columns
Presolve time: 0.02s
Presolved: 4595 rows, 6849 columns, 16839 nonzeros

Ordering time: 0.00s

Barrier statistics:
 AA' NZ     : 1.162e+04
 Factor NZ  : 4.965e+04 (roughly 4 MB of memory)
 Factor Ops : 7.433e+05 (less than 1 second per iteration)
 Threads    : 1

                  Objective                Residual
Iter       Primal          Dual         Primal    Dual     Compl     Time
   0   6.25339796e+05 -1.30542566e+08  5.32e+00 3.50e+02  2.11e+04     0s
   1   7.62635956e+04 -1.97119590e+07  4.73e-01 1.99e-11  2.19e+03     0s
   2   4.05070118e+04 -1.91248846e+06  1.33e-01 1.32e-11  2.05e+02     0s
   3   1.94427622e+04 -3.15298547e+05  5.27e-03 7.28e-12  2.88e+01     0s
   4   7.97907143e+03 -5.22826654e+04  3.79e-04 6.23e-12  5.13e+00     0s
   5   2.76623843e+03 -1.04656639e+04  9.90e-05 3.64e-12  1.13e+00     0s
   6   5.32865260e+02 -1.59632594e+03  6.41e-06 3.64e-12  1.81e-01     0s
   7   3.37478893e+02 -4.81607670e+02  2.26e-06 3.64e-12  6.97e-02     0s
   8   2.23983139e+02 -1.16072391e+02  1.02e-06 3.64e-12  2.89e-02     0s
   9   1.31670779e+02  5.23913148e+01  1.05e-07 7.28e-12  6.75e-03     0s
  10   1.17058135e+02  8.86708241e+01  3.35e-08 3.64e-12  2.42e-03     0s
  11   1.12642700e+02  1.01219949e+02  1.48e-08 3.64e-12  9.72e-04     0s
  12   1.10299534e+02  1.07057651e+02  5.64e-09 3.64e-12  2.76e-04     0s
  13   1.08986893e+02  1.08610801e+02  6.85e-10 3.64e-12  3.20e-05     0s
  14   1.08786898e+02  1.08764465e+02  1.95e-11 3.64e-12  1.91e-06     0s
  15   1.08778835e+02  1.08778757e+02  2.97e-11 7.28e-12  6.63e-09     0s
  16   1.08778791e+02  1.08778791e+02  1.43e-09 3.64e-12  6.65e-12     0s
  17   1.08778791e+02  1.08778791e+02  4.26e-10 3.64e-12  6.65e-15     0s

Barrier solved model in 17 iterations and 0.08 seconds (0.07 work units)
Optimal objective 1.08778791e+02

Crossover log...

     637 DPushes remaining with DInf 0.0000000e+00                 0s
       0 DPushes remaining with DInf 0.0000000e+00                 0s

     245 PPushes remaining with PInf 0.0000000e+00                 0s
       0 PPushes remaining with PInf 0.0000000e+00                 0s

  Push phase complete: Pinf 0.0000000e+00, Dinf 1.4042343e-12      0s

Iteration    Objective       Primal Inf.    Dual Inf.      Time
     265    1.0877879e+02   0.000000e+00   0.000000e+00      0s

Use crossover to convert LP symmetric solution to basic solution...
Crossover log...

       0 DPushes remaining with DInf 0.0000000e+00                 0s

     153 PPushes remaining with PInf 0.0000000e+00                 0s
       0 PPushes remaining with PInf 0.0000000e+00                 0s

  Push phase complete: Pinf 0.0000000e+00, Dinf 2.1794036e-12      0s

Iteration    Objective       Primal Inf.    Dual Inf.      Time
     429    1.0877879e+02   0.000000e+00   0.000000e+00      0s

Solved in 429 iterations and 0.12 seconds (0.09 work units)
Optimal objective  1.087787908e+02

Gurobi 9.5.0 (linux64) logging started Wed Nov 15 15:04:39 2023

Set parameter LogFile to value "/lustre1/scratch/348/vsc34888/JointResearch/05.Models/06.Benchmarking/D.Representative_days_based_on_RES_and_Demand/RTS24_ByStages_nc50/openStarNet_RTS24_ByStages_nc50.log"
Set parameter Method to value 2
Set parameter MIPFocus to value 1
Set parameter Presolve to value 2
Set parameter RINS to value 100
Set parameter MIPGap to value 0.01
Set parameter Threads to value 36
Set parameter TimeLimit to value 604800
Set parameter IterationLimit to value 760000000
Gurobi Optimizer version 9.5.0 build v9.5.0rc5 (linux64)
Thread count: 36 physical cores, 36 logical processors, using up to 36 threads
Optimize a model with 24210 rows, 13699 columns and 64799 nonzeros
Model fingerprint: 0xcdc4e49f
Variable types: 13660 continuous, 39 integer (39 binary)
Coefficient statistics:
  Matrix range     [3e-02, 2e+03]
  Objective range  [1e+00, 1e+00]
  Bounds range     [4e-04, 3e+00]
  RHS range        [4e-04, 3e+00]
Presolve removed 12582 rows and 6157 columns
Presolve time: 0.10s
Presolved: 11628 rows, 7542 columns, 40500 nonzeros
Variable types: 7503 continuous, 39 integer (39 binary)
Found heuristic solution: objective 159.3917804
Root relaxation presolved: 11628 rows, 7542 columns, 40500 nonzeros

Root barrier log...

Ordering time: 0.00s

Barrier statistics:
 Dense cols : 39
 AA' NZ     : 8.604e+04
 Factor NZ  : 2.887e+05 (roughly 10 MB of memory)
 Factor Ops : 9.088e+06 (less than 1 second per iteration)
 Threads    : 36

                  Objective                Residual
Iter       Primal          Dual         Primal    Dual     Compl     Time
   0   6.34408149e+05 -3.91814289e+07  4.54e+00 1.80e+02  4.80e+03     0s
   1   7.96680786e+04 -1.06511859e+07  4.56e-01 2.00e-09  6.33e+02     0s
   2   2.17385820e+04 -1.20481271e+06  8.22e-03 8.43e-10  5.24e+01     0s
   3   9.19739202e+03 -1.25452293e+05  5.13e-13 7.91e-11  5.67e+00     0s
   4   1.77196725e+03 -9.67596404e+03  4.23e-13 4.89e-12  4.82e-01     0s
   5   7.63181826e+02 -2.64182008e+03  3.57e-13 1.82e-12  1.43e-01     0s
   6   4.92094877e+02 -1.15174440e+03  2.68e-13 9.09e-13  6.92e-02     0s
   7   2.62447094e+02 -3.96599336e+02  2.84e-13 9.09e-13  2.77e-02     0s
   8   1.54599680e+02  2.73955499e+00  2.22e-13 1.82e-12  6.39e-03     0s
   9   1.29065881e+02  6.22579204e+01  2.34e-13 9.09e-13  2.81e-03     0s
  10   1.12300076e+02  8.21807433e+01  4.81e-13 9.09e-13  1.27e-03     0s
  11   1.03509569e+02  9.36426880e+01  2.06e-12 9.09e-13  4.15e-04     0s
  12   1.00020322e+02  9.51613936e+01  1.37e-11 9.09e-13  2.05e-04     0s
  13   9.91534111e+01  9.62157739e+01  8.67e-12 9.09e-13  1.24e-04     0s
  14   9.84011901e+01  9.69410235e+01  4.87e-12 9.09e-13  6.15e-05     0s
  15   9.80469787e+01  9.73408657e+01  5.67e-12 1.82e-12  2.97e-05     0s
  16   9.79310448e+01  9.74853846e+01  1.15e-11 9.09e-13  1.88e-05     0s
  17   9.77029135e+01  9.75266395e+01  3.72e-11 9.09e-13  7.42e-06     0s
  18   9.76004788e+01  9.75768121e+01  4.25e-10 1.82e-12  9.96e-07     0s
  19   9.75845399e+01  9.75825689e+01  3.74e-10 9.09e-13  8.30e-08     0s
  20   9.75830125e+01  9.75830037e+01  4.30e-11 9.09e-13  3.73e-10     0s
  21   9.75830100e+01  9.75830099e+01  7.78e-10 9.09e-13  4.01e-12     0s

Barrier solved model in 21 iterations and 0.49 seconds (0.36 work units)
Optimal objective 9.75830100e+01


Root relaxation: objective 9.758301e+01, 879 iterations, 0.36 seconds (0.19 work units)

    Nodes    |    Current Node    |     Objective Bounds      |     Work
 Expl Unexpl |  Obj  Depth IntInf | Incumbent    BestBd   Gap | It/Node Time

     0     0   97.58301    0   12  159.39178   97.58301  38.8%     -    0s
H    0     0                     128.4464929   97.58301  24.0%     -    0s
     0     0   99.93934    0   11  128.44649   99.93934  22.2%     -    0s
H    0     0                     128.2953432   99.93934  22.1%     -    1s
     0     0  100.00357    0   12  128.29534  100.00357  22.1%     -    1s
     0     0  100.05155    0   12  128.29534  100.05155  22.0%     -    1s
     0     0  100.05277    0   12  128.29534  100.05277  22.0%     -    1s
H    0     0                     113.5927434  100.05277  11.9%     -    1s
     0     0  100.77320    0   12  113.59274  100.77320  11.3%     -    1s
     0     0  100.81111    0   11  113.59274  100.81111  11.3%     -    1s
     0     0  100.81248    0   12  113.59274  100.81248  11.3%     -    1s
H    0     0                     113.1849571  100.81248  10.9%     -    1s
     0     0  101.00819    0   11  113.18496  101.00819  10.8%     -    1s
     0     0  101.01071    0   11  113.18496  101.01071  10.8%     -    1s
H    0     0                     112.7200201  101.01073  10.4%     -    1s
     0     0  101.01073    0   11  112.72002  101.01073  10.4%     -    1s
     0     0  101.05835    0   11  112.72002  101.05835  10.3%     -    1s
     0     0  101.05858    0   11  112.72002  101.05858  10.3%     -    2s
     0     0  101.06058    0   11  112.72002  101.06058  10.3%     -    2s
H    0     0                     112.2479143  101.06058  10.0%     -    6s
     0     2  101.06058    0   11  112.24791  101.06058  10.0%     -    6s
H   22    18                     111.0862662  102.62885  7.61%   204    6s
H   85    62                     109.1988822  103.85968  4.89%   192    6s
   109    54     cutoff    8       109.19888  104.98852  3.86%   189   12s
   145    54  107.36158    9    5  109.19888  105.07806  3.77%   163   18s
   323    22     cutoff   13       109.19888  106.51756  2.46%   116   21s

Cutting planes:
  Gomory: 5
  Implied bound: 49
  MIR: 413
  Relax-and-lift: 2

Explored 410 nodes (46322 simplex iterations) in 21.58 seconds (24.28 work units)
Thread count was 36 (of 36 available processors)

Solution count 9: 109.199 111.086 112.248 ... 159.392

Optimal solution found (tolerance 1.00e-02)
Best objective 1.091988821902e+02, best bound 1.082140791173e+02, gap 0.9018%

Gurobi 9.5.0 (linux64) logging started Wed Nov 15 15:05:03 2023

Set parameter LogFile to value "/lustre1/scratch/348/vsc34888/JointResearch/05.Models/06.Benchmarking/D.Representative_days_based_on_RES_and_Demand/RTS24_ByStages_nc50/openStarNet_RTS24_ByStages_nc50.log"
Set parameter Method to value 2
Set parameter MIPFocus to value 1
Set parameter Presolve to value 2
Set parameter RINS to value 100
Set parameter MIPGap to value 0.01
Set parameter Threads to value 36
Set parameter TimeLimit to value 604800
Set parameter IterationLimit to value 760000000
No parameters matching 'relax_integrality' found
Gurobi Optimizer version 9.5.0 build v9.5.0rc5 (linux64)
Thread count: 36 physical cores, 36 logical processors, using up to 36 threads
Optimize a model with 24210 rows, 13660 columns and 56804 nonzeros
Model fingerprint: 0xd0eabab2
Coefficient statistics:
  Matrix range     [3e-02, 2e+03]
  Objective range  [1e+00, 1e+00]
  Bounds range     [4e-04, 3e+00]
  RHS range        [4e-04, 3e+01]
Presolve removed 19528 rows and 6738 columns
Presolve time: 0.02s
Presolved: 4682 rows, 7024 columns, 17204 nonzeros

Ordering time: 0.00s

Barrier statistics:
 AA' NZ     : 1.180e+04
 Factor NZ  : 5.044e+04 (roughly 4 MB of memory)
 Factor Ops : 7.542e+05 (less than 1 second per iteration)
 Threads    : 1

                  Objective                Residual
Iter       Primal          Dual         Primal    Dual     Compl     Time
   0   6.10845883e+05 -9.29996027e+07  5.20e+00 1.08e+03  1.45e+04     0s
   1   7.30189037e+04 -1.38373936e+07  4.40e-01 1.16e-11  1.48e+03     0s
   2   3.80190682e+04 -1.39143928e+06  1.11e-01 9.38e-12  1.42e+02     0s
   3   1.78097068e+04 -1.72375586e+05  1.08e-13 9.09e-12  1.58e+01     0s
   4   5.80405833e+03 -2.37379095e+04  4.76e-13 3.64e-12  2.45e+00     0s
   5   1.70917714e+03 -3.82393916e+03  1.55e-13 3.64e-12  4.59e-01     0s
   6   3.70764768e+02 -1.06127865e+03  7.47e-13 1.82e-12  1.19e-01     0s
   7   2.58409002e+02 -3.76324933e+02  2.95e-13 3.64e-12  5.27e-02     0s
   8   1.70511760e+02 -5.69585702e+01  3.03e-13 1.82e-12  1.89e-02     0s
   9   1.21855516e+02  7.61145882e+01  1.21e-13 1.82e-12  3.80e-03     0s
  10   1.13452878e+02  9.49998260e+01  3.75e-12 3.64e-12  1.53e-03     0s
  11   1.10586539e+02  1.04376900e+02  1.30e-12 3.64e-12  5.15e-04     0s
  12   1.09396338e+02  1.07679006e+02  7.33e-13 1.82e-12  1.43e-04     0s
  13   1.09207011e+02  1.09120634e+02  1.12e-12 3.64e-12  7.17e-06     0s
  14   1.09199301e+02  1.09196213e+02  5.46e-12 1.82e-12  2.56e-07     0s
  15   1.09198883e+02  1.09198880e+02  5.28e-13 3.64e-12  2.56e-10     0s
  16   1.09198882e+02  1.09198882e+02  4.59e-13 3.64e-12  2.56e-13     0s

Barrier solved model in 16 iterations and 0.08 seconds (0.07 work units)
Optimal objective 1.09198882e+02

Crossover log...

     671 DPushes remaining with DInf 0.0000000e+00                 0s
       0 DPushes remaining with DInf 0.0000000e+00                 0s

     239 PPushes remaining with PInf 0.0000000e+00                 0s
       0 PPushes remaining with PInf 0.0000000e+00                 0s

  Push phase complete: Pinf 0.0000000e+00, Dinf 2.4798282e-12      0s

Iteration    Objective       Primal Inf.    Dual Inf.      Time
     256    1.0919888e+02   0.000000e+00   0.000000e+00      0s

Use crossover to convert LP symmetric solution to basic solution...
Crossover log...

       0 DPushes remaining with DInf 0.0000000e+00                 0s

     175 PPushes remaining with PInf 0.0000000e+00                 0s
       0 PPushes remaining with PInf 0.0000000e+00                 0s

  Push phase complete: Pinf 0.0000000e+00, Dinf 1.1075221e-12      0s

Iteration    Objective       Primal Inf.    Dual Inf.      Time
     440    1.0919888e+02   0.000000e+00   0.000000e+00      0s

Solved in 440 iterations and 0.12 seconds (0.09 work units)
Optimal objective  1.091988822e+02
